163
1000
340
433
318
769
313
77
109
454
200
598
240
504
238
749
375
74
437
682
230
15
956
211
43
189
85
448
710
478
80
147
42
270
806
223
460
228
61
44
653
167
351
642
364
369
140
16
64
918
246
236
66
148
323
166
550
443
532
125
303
664
251
1
190
231
383
194
159
664
412
741
194
341
389
259
999
223
173
418
116
208
674
39
552
326
227
347
342
570
215
772
369
44
261
673
252
738
219
127
331
833
219
302
362
77
262
939
649
614
296
407
658
44
231
294
582
222
258
574
567
773
47
764
386
739
524
677
88
1
449
72
453
634
135
173
8
511
183
236
998
934
155
261
166
395
164
373
364
386
777
778
593
489
588
2
61
13
443
455
800
434
80
450
852
